Using license file /home/benedond/gurobi.lic
Using gurobi.env file
Set parameter Threads to value 1
Academic license - for non-commercial use only
Changed value of parameter TimeLimit to 300.0
   Prev: inf  Min: 0.0  Max: inf  Default: inf
Gurobi Optimizer version 9.0.1 build v9.0.1rc0 (linux64)
Optimize a model with 6600 rows, 3280 columns and 25758 nonzeros
Model fingerprint: 0x9a7aa449
Variable types: 40 continuous, 3240 integer (3200 binary)
Coefficient statistics:
  Matrix range     [2e-01, 6e+03]
  Objective range  [6e-04, 2e-01]
  Bounds range     [1e+00, 1e+00]
  RHS range        [1e+00, 6e+03]

---------------------------------------------------------------------------
Multi-objectives: starting optimization with 1 objectives ... 
---------------------------------------------------------------------------
---------------------------------------------------------------------------

Multi-objectives: optimize objective 1 (min avg power cons) ...
---------------------------------------------------------------------------

Optimize a model with 6600 rows, 3280 columns and 25758 nonzeros
Variable types: 40 continuous, 3240 integer (3200 binary)
Coefficient statistics:
  Matrix range     [2e-01, 6e+03]
  Objective range  [6e-04, 2e-01]
  Bounds range     [1e+00, 1e+00]
  RHS range        [1e+00, 6e+03]
Presolve removed 3972 rows and 1975 columns
Presolve time: 0.45s
Presolved: 2628 rows, 1305 columns, 9953 nonzeros
Variable types: 38 continuous, 1267 integer (1229 binary)

Root relaxation: objective 1.273491e+00, 359 iterations, 0.01 seconds

    Nodes    |    Current Node    |     Objective Bounds      |     Work
 Expl Unexpl |  Obj  Depth IntInf | Incumbent    BestBd   Gap | It/Node Time

     0     0    1.27349    0   92          -    1.27349      -     -    0s
     0     0    1.27349    0  113          -    1.27349      -     -    0s
H    0     0                       3.9093668    1.27349  67.4%     -    0s
H    0     0                       3.8931834    1.27349  67.3%     -    0s
     0     0    1.27349    0  102    3.89318    1.27349  67.3%     -    0s
     0     0    1.31728    0   95    3.89318    1.31728  66.2%     -    0s
H    0     0                       3.8852012    1.31728  66.1%     -    0s
     0     0    1.34074    0  191    3.88520    1.34074  65.5%     -    0s
     0     0    1.41666    0  102    3.88520    1.41666  63.5%     -    1s
H    0     0                       3.8548106    1.41666  63.2%     -    1s
     0     0    1.42033    0  114    3.85481    1.42033  63.2%     -    1s
     0     0    1.45520    0  206    3.85481    1.45520  62.2%     -    1s
H    0     0                       3.8237337    1.45520  61.9%     -    1s
     0     0    1.45983    0  168    3.82373    1.45983  61.8%     -    1s
     0     0    1.48710    0  114    3.82373    1.48710  61.1%     -    1s
H    0     0                       3.3484970    1.48710  55.6%     -    1s
     0     0    1.48892    0  107    3.34850    1.48892  55.5%     -    1s
     0     0    1.55055    0  112    3.34850    1.55055  53.7%     -    1s
     0     0    1.55167    0  105    3.34850    1.55167  53.7%     -    1s
     0     0    1.63445    0  123    3.34850    1.63445  51.2%     -    1s
     0     0    1.64273    0  174    3.34850    1.64273  50.9%     -    1s
     0     0    1.65026    0  126    3.34850    1.65026  50.7%     -    1s
     0     0    1.65429    0  122    3.34850    1.65429  50.6%     -    1s
     0     0    1.65552    0  117    3.34850    1.65552  50.6%     -    1s
     0     0    1.65597    0  117    3.34850    1.65597  50.5%     -    1s
     0     0    1.65600    0  113    3.34850    1.65600  50.5%     -    1s
     0     0    1.65818    0  158    3.34850    1.65818  50.5%     -    1s
     0     0    1.65864    0  140    3.34850    1.65864  50.5%     -    1s
     0     0    1.65870    0  145    3.34850    1.65870  50.5%     -    1s
     0     0    1.66219    0  174    3.34850    1.66219  50.4%     -    1s
     0     0    1.66387    0  186    3.34850    1.66387  50.3%     -    2s
     0     0    1.66585    0  192    3.34850    1.66585  50.3%     -    2s
     0     0    1.66626    0  185    3.34850    1.66626  50.2%     -    2s
     0     0    1.66675    0  197    3.34850    1.66675  50.2%     -    2s
     0     0    1.66680    0  185    3.34850    1.66680  50.2%     -    2s
     0     0    1.67214    0  156    3.34850    1.67214  50.1%     -    2s
H    0     0                       3.1231716    1.67214  46.5%     -    2s
     0     0    1.67272    0  175    3.12317    1.67272  46.4%     -    2s
     0     0    1.67284    0  172    3.12317    1.67284  46.4%     -    2s
     0     0    1.67408    0  190    3.12317    1.67408  46.4%     -    2s
     0     0    1.67462    0  176    3.12317    1.67462  46.4%     -    2s
     0     0    1.67508    0  184    3.12317    1.67508  46.4%     -    2s
     0     0    1.67528    0  180    3.12317    1.67528  46.4%     -    2s
     0     0    1.67528    0  184    3.12317    1.67528  46.4%     -    2s
     0     0    1.67620    0  222    3.12317    1.67620  46.3%     -    2s
     0     0    1.67676    0  229    3.12317    1.67676  46.3%     -    2s
     0     0    1.67682    0  248    3.12317    1.67682  46.3%     -    2s
     0     0    1.67787    0  192    3.12317    1.67787  46.3%     -    2s
     0     0    1.67844    0  195    3.12317    1.67844  46.3%     -    2s
     0     0    1.67927    0  187    3.12317    1.67927  46.2%     -    2s
     0     0    1.67999    0  225    3.12317    1.67999  46.2%     -    2s
     0     0    1.68031    0  237    3.12317    1.68031  46.2%     -    2s
     0     0    1.68046    0  198    3.12317    1.68046  46.2%     -    2s
     0     0    1.68073    0  232    3.12317    1.68073  46.2%     -    2s
     0     0    1.68087    0  219    3.12317    1.68087  46.2%     -    2s
     0     0    1.68311    0  209    3.12317    1.68311  46.1%     -    2s
H    0     0                       2.9852071    1.68311  43.6%     -    2s
     0     0    1.68522    0  210    2.98521    1.68522  43.5%     -    2s
     0     0    1.68535    0  237    2.98521    1.68535  43.5%     -    2s
     0     0    1.68754    0  243    2.98521    1.68754  43.5%     -    3s
H    0     0                       2.9659527    1.68754  43.1%     -    3s
     0     0    1.68834    0  229    2.96595    1.68834  43.1%     -    3s
     0     0    1.68853    0  215    2.96595    1.68853  43.1%     -    3s
     0     0    1.68857    0  224    2.96595    1.68857  43.1%     -    3s
     0     0    1.68934    0  188    2.96595    1.68934  43.0%     -    3s
     0     0    1.68993    0  225    2.96595    1.68993  43.0%     -    3s
     0     0    1.69037    0  246    2.96595    1.69037  43.0%     -    3s
     0     0    1.69047    0  254    2.96595    1.69047  43.0%     -    3s
     0     0    1.69143    0  221    2.96595    1.69143  43.0%     -    3s
H    0     0                       2.9384201    1.69143  42.4%     -    3s
     0     0    1.69186    0  282    2.93842    1.69186  42.4%     -    3s
     0     0    1.69209    0  286    2.93842    1.69209  42.4%     -    3s
     0     0    1.69277    0  251    2.93842    1.69277  42.4%     -    3s
     0     0    1.69347    0  273    2.93842    1.69347  42.4%     -    3s
     0     0    1.69359    0  286    2.93842    1.69359  42.4%     -    3s
     0     0    1.69507    0  231    2.93842    1.69507  42.3%     -    3s
     0     0    1.69561    0  261    2.93842    1.69561  42.3%     -    3s
     0     0    1.69587    0  344    2.93842    1.69587  42.3%     -    3s
     0     0    1.69604    0  340    2.93842    1.69604  42.3%     -    3s
     0     0    1.69735    0  239    2.93842    1.69735  42.2%     -    3s
     0     0    1.69757    0  286    2.93842    1.69757  42.2%     -    3s
     0     0    1.69763    0  267    2.93842    1.69763  42.2%     -    3s
     0     0    1.69820    0  266    2.93842    1.69820  42.2%     -    3s
     0     0    1.69820    0  251    2.93842    1.69820  42.2%     -    3s
H    0     0                       2.8634734    1.69824  40.7%     -    8s
     0     2    1.69824    0  251    2.86347    1.69824  40.7%     -    8s
H    9     9                       2.8563728    1.69852  40.5%   200    8s
   240   211    2.08257    6  124    2.85637    1.70287  40.4%  89.1   10s
H  515   436                       2.8235858    1.70462  39.6%  60.3   12s
   524   442    1.72255   11  275    2.82359    1.71687  39.2%  59.2   15s
   540   452    2.77800  180  296    2.82359    1.73845  38.4%  57.5   20s
   554   462    2.26426   49  299    2.82359    1.74888  38.1%  56.0   25s
   572   474    2.72263   64  264    2.82359    1.76245  37.6%  54.3   30s
   587   484    2.26314   44  264    2.82359    1.76954  37.3%  52.9   35s
   604   495    2.38836   38  257    2.82359    1.77501  37.1%  51.4   40s
   618   504    2.77738  183  280    2.82359    1.77983  37.0%  50.2   45s
   636   518    2.26314   33  148    2.82359    1.78229  36.9%   141   50s
H  637   493                       2.8195030    1.78229  36.8%   141   50s
   650   501    2.78038  187  250    2.81950    1.78320  36.8%   138   55s
   666   512    2.56375   39  276    2.81950    1.78606  36.7%   135   60s
   682   523    2.57006   66  272    2.81950    1.78910  36.5%   132   66s
   688   527 infeasible   25         2.81950    1.78953  36.5%   182   70s
   704   533    2.01355   33  229    2.81950    1.79132  36.5%   199   75s
   732   552    1.96712   47  150    2.81950    1.79593  36.3%   225   80s
   782   585    1.88787   72  141    2.81950    1.79593  36.3%   250   85s
   866   637    2.30519  114  117    2.81950    1.79593  36.3%   270   90s
H  979   640                       2.7944379    1.79593  35.7%   263   94s
   983   642    2.75714  174  100    2.79444    1.79593  35.7%   263   95s
  1026   654    1.91275   45  162    2.79444    1.79594  35.7%   278  100s
  1074   686    2.04101   69  154    2.79444    1.79594  35.7%   300  105s
H 1145   682                       2.7873373    1.79594  35.6%   302  108s
H 1172   668                       2.7825680    1.79594  35.5%   298  108s
  1221   676    1.98408   37  142    2.78257    1.80181  35.2%   293  110s
  1291   714    2.32110   76   76    2.78257    1.80187  35.2%   303  115s
H 1336   708                       2.7788816    1.80187  35.2%   296  116s
H 1390   699                       2.7720414    1.80752  34.8%   289  118s
H 1417   696                       2.7695089    1.80752  34.7%   288  118s
  1467   710    1.83884   33  213    2.76951    1.81619  34.4%   283  120s
  1511   739    2.12831   66  137    2.76951    1.81619  34.4%   295  125s
  1638   786    2.73869   39  137    2.76951    1.81619  34.4%   294  130s
  1736   795    2.68701   65  132    2.76951    1.81676  34.4%   296  135s
  1825   828    2.33491   73   93    2.76951    1.81692  34.4%   299  140s
  1929   896    2.11635   35  187    2.76951    1.83130  33.9%   303  145s
  1975   925    2.75206   49  100    2.76951    1.83130  33.9%   307  155s
  1986   927    2.04716   46  191    2.76951    1.83130  33.9%   308  160s
H 2015   951                       2.7677515    1.83130  33.8%   307  162s
H 2042   937                       2.7183314    1.83130  32.6%   303  162s
H 2069   954                       2.7123314    1.83130  32.5%   300  162s
  2138   997    1.95795   39  166    2.71233    1.83643  32.3%   295  165s
  2267  1097    1.95544   61  208    2.71233    1.83884  32.2%   295  170s
  2392  1177    1.96909   69  205    2.71233    1.83926  32.2%   297  175s
  2485  1240    2.19063   51  182    2.71233    1.84313  32.0%   303  180s
  2625  1337    2.66910  124   81    2.71233    1.84667  31.9%   303  185s
  2729  1391    1.96549   28  157    2.71233    1.85300  31.7%   308  190s
  2866  1479    2.45879   66  187    2.71233    1.85960  31.4%   308  195s
  2983  1565    2.26965   55  142    2.71233    1.86260  31.3%   309  200s
  3152  1679    2.11431   60  180    2.71233    1.87282  31.0%   304  205s
  3254  1744    2.25637   45  211    2.71233    1.87567  30.8%   309  210s
  3385  1807    2.29430   42  160    2.71233    1.87677  30.8%   311  215s
  3444  1839    2.24724   69  148    2.71233    1.87844  30.7%   318  220s
H 3566  1915                       2.7093373    1.88212  30.5%   318  225s
H 3566  1915                       2.7093373    1.88212  30.5%   318  233s
  3592  1937    2.05346   40  142    2.70934    1.88306  30.5%   319  235s
  3668  1990    2.20846   53  114    2.70934    1.88834  30.3%   323  240s
  3814  2084    2.03498   44  254    2.70934    1.89046  30.2%   323  245s
  3924  2168 infeasible   60         2.70934    1.89097  30.2%   325  250s
  4054  2265    2.47639  108  123    2.70934    1.89281  30.1%   324  255s
  4153  2325    2.26961   54  178    2.70934    1.89511  30.1%   327  260s
  4327  2417    2.04606   91  167    2.70934    1.89876  29.9%   325  265s
  4422  2489    2.59642  101  138    2.70934    1.89958  29.9%   328  270s
  4566  2573    1.97982   28  200    2.70934    1.90475  29.7%   327  275s
  4570  2577    2.06188   32  214    2.70934    1.90475  29.7%   327  287s
  4617  2602    2.38920   48  142    2.70934    1.90547  29.7%   327  290s
  4747  2682    2.68727   64  117    2.70934    1.90615  29.6%   326  295s

Cutting planes:
  Gomory: 1
  Cover: 52
  Implied bound: 99
  Projected implied bound: 99
  Clique: 1
  MIR: 406
  Flow cover: 387
  GUB cover: 20
  Zero half: 2
  Mod-K: 3
  RLT: 4
  Relax-and-lift: 248

Explored 4848 nodes (1612180 simplex iterations) in 300.00 seconds
Thread count was 1 (of 4 available processors)

Solution count 10: 2.70934 2.71233 2.71833 ... 2.79444

Time limit reached
Best objective 2.709337267940e+00, best bound 1.907016013167e+00, gap 29.6132%

---------------------------------------------------------------------------
Multi-objectives: stopped in 300.01 seconds, solution count 10
Time Limit reached

